
Log for 'd6cube.lp' Clone_1 (V20.1.0.0) Sat May  3 20:30:00 2025

Tried aggregator 1 time.
LP Presolve eliminated 12 rows and 741 columns.
Aggregator did 1 substitutions.
Reduced LP has 402 rows, 5442 columns, and 34230 nonzeros.
Presolve time = 0.02 sec. (11.00 ticks)
Parallel mode: using up to 14 threads for barrier.
Number of nonzeros in lower triangle of A*A' = 13037
Using Nested Dissection ordering
Total time for automatic ordering = 0.01 sec. (5.03 ticks)
Summary statistics for Cholesky factor:
  Threads                   = 14
  Rows in Factor            = 402
  Integer space required    = 2690
  Total non-zeros in factor = 54221
  Total FP ops to factor    = 9529759
 Itn      Primal Obj        Dual Obj  Prim Inf Upper Inf  Dual Inf Inf Ratio
   0   1.0252179e+04   2.8807117e+00  1.03e+04  0.00e+00  1.26e+03  1.00e+00
   1   1.5518201e+03   2.0877549e+02  1.22e+03  0.00e+00  5.81e+02  2.52e+00
   2   1.1141158e+03   2.7579227e+02  7.67e+02  0.00e+00  3.35e+02  4.17e+00
   3   7.0972247e+02   2.9646807e+02  3.73e+02  0.00e+00  2.02e+02  6.87e+00
   4   4.4519256e+02   3.0639164e+02  1.20e+02  0.00e+00  1.15e+02  1.25e+01
   5   3.8817344e+02   3.1422778e+02  6.53e+01  0.00e+00  4.98e+01  3.56e+01
   6   3.5862993e+02   3.1526938e+02  3.78e+01  0.00e+00  3.57e+01  5.23e+01
   7   3.3251573e+02   3.1591798e+02  1.40e+01  0.00e+00  2.40e+01  8.45e+01
   8   3.2601122e+02   3.1623154e+02  8.28e+00  0.00e+00  1.17e+01  2.25e+02
   9   3.1882403e+02   3.1596688e+02  2.55e+00  0.00e+00  6.59e+00  4.11e+02
  10   3.1624041e+02   3.1562782e+02  5.68e-01  0.00e+00  1.80e+00  1.58e+03
  11   3.1566315e+02   3.1555027e+02  1.08e-01  0.00e+00  4.08e-01  1.64e+04
  12   3.1549333e+02   3.1549346e+02  1.05e-03  0.00e+00  1.25e-02  5.47e+05
Barrier time = 0.04 sec. (18.77 ticks)

Dual simplex solved model.


Log for 'files/d6cube.mps' Clone_1 (V20.1.0.0) Sat May  3 20:30:25 2025

Tried aggregator 1 time.
LP Presolve eliminated 12 rows and 741 columns.
Aggregator did 1 substitutions.
Reduced LP has 402 rows, 5442 columns, and 34230 nonzeros.
Presolve time = 0.02 sec. (10.92 ticks)
Parallel mode: using up to 14 threads for barrier.
Number of nonzeros in lower triangle of A*A' = 13037
Using Nested Dissection ordering
Total time for automatic ordering = 0.01 sec. (5.03 ticks)
Summary statistics for Cholesky factor:
  Threads                   = 14
  Rows in Factor            = 402
  Integer space required    = 2690
  Total non-zeros in factor = 54221
  Total FP ops to factor    = 9529759
 Itn      Primal Obj        Dual Obj  Prim Inf Upper Inf  Dual Inf Inf Ratio
   0   1.0252179e+04   2.8807117e+00  1.03e+04  0.00e+00  1.26e+03  1.00e+00
   1   1.5518201e+03   2.0877549e+02  1.22e+03  0.00e+00  5.81e+02  2.52e+00
   2   1.1141158e+03   2.7579227e+02  7.67e+02  0.00e+00  3.35e+02  4.17e+00
   3   7.0972247e+02   2.9646807e+02  3.73e+02  0.00e+00  2.02e+02  6.87e+00
   4   4.4519256e+02   3.0639164e+02  1.20e+02  0.00e+00  1.15e+02  1.25e+01
   5   3.8817344e+02   3.1422778e+02  6.53e+01  0.00e+00  4.98e+01  3.56e+01
   6   3.5862993e+02   3.1526938e+02  3.78e+01  0.00e+00  3.57e+01  5.23e+01
   7   3.3251573e+02   3.1591798e+02  1.40e+01  0.00e+00  2.40e+01  8.45e+01
   8   3.2601122e+02   3.1623154e+02  8.28e+00  0.00e+00  1.17e+01  2.25e+02
   9   3.1882403e+02   3.1596688e+02  2.55e+00  0.00e+00  6.59e+00  4.11e+02
  10   3.1624041e+02   3.1562782e+02  5.68e-01  0.00e+00  1.80e+00  1.58e+03
  11   3.1566315e+02   3.1555027e+02  1.08e-01  0.00e+00  4.08e-01  1.64e+04
  12   3.1549333e+02   3.1549346e+02  1.05e-03  0.00e+00  1.25e-02  5.47e+05
  13   3.1549167e+02   3.1549167e+02  1.33e-07  0.00e+00  2.32e-06  5.06e+09
 Barrier aborted.
Barrier time = 0.04 sec. (19.66 ticks)

Dual simplex solved model.


Log for 'files/d6cube.mps' Clone_1 (V20.1.0.0) Sat May  3 20:48:36 2025

Tried aggregator 1 time.
LP Presolve eliminated 12 rows and 741 columns.
Aggregator did 1 substitutions.
Reduced LP has 402 rows, 5442 columns, and 34230 nonzeros.
Presolve time = 0.02 sec. (10.92 ticks)
Parallel mode: using up to 14 threads for barrier.
Number of nonzeros in lower triangle of A*A' = 13037
Using Nested Dissection ordering
Total time for automatic ordering = 0.01 sec. (5.03 ticks)
Summary statistics for Cholesky factor:
  Threads                   = 14
  Rows in Factor            = 402
  Integer space required    = 2690
  Total non-zeros in factor = 54221
  Total FP ops to factor    = 9529759
 Itn      Primal Obj        Dual Obj  Prim Inf Upper Inf  Dual Inf Inf Ratio
   0   1.0252179e+04   2.8807117e+00  1.03e+04  0.00e+00  1.26e+03  1.00e+00
   1   1.5518201e+03   2.0877549e+02  1.22e+03  0.00e+00  5.81e+02  2.52e+00
   2   1.1141158e+03   2.7579227e+02  7.67e+02  0.00e+00  3.35e+02  4.17e+00
   3   7.0972247e+02   2.9646807e+02  3.73e+02  0.00e+00  2.02e+02  6.87e+00
   4   4.4519256e+02   3.0639164e+02  1.20e+02  0.00e+00  1.15e+02  1.25e+01
   5   3.8817344e+02   3.1422778e+02  6.53e+01  0.00e+00  4.98e+01  3.56e+01
   6   3.5862993e+02   3.1526938e+02  3.78e+01  0.00e+00  3.57e+01  5.23e+01
   7   3.3251573e+02   3.1591798e+02  1.40e+01  0.00e+00  2.40e+01  8.45e+01
   8   3.2601122e+02   3.1623154e+02  8.28e+00  0.00e+00  1.17e+01  2.25e+02
   9   3.1882403e+02   3.1596688e+02  2.55e+00  0.00e+00  6.59e+00  4.11e+02
Barrier time = 0.04 sec. (16.34 ticks)

Dual simplex solved model.


Log for 'files/d6cube.mps' Clone_1 (V20.1.0.0) Sat May  3 20:50:06 2025

Tried aggregator 1 time.
LP Presolve eliminated 12 rows and 741 columns.
Aggregator did 1 substitutions.
Reduced LP has 402 rows, 5442 columns, and 34230 nonzeros.
Presolve time = 0.02 sec. (10.92 ticks)
Parallel mode: using up to 14 threads for barrier.
Number of nonzeros in lower triangle of A*A' = 13037
Using Nested Dissection ordering
Total time for automatic ordering = 0.01 sec. (5.03 ticks)
Summary statistics for Cholesky factor:
  Threads                   = 14
  Rows in Factor            = 402
  Integer space required    = 2690
  Total non-zeros in factor = 54221
  Total FP ops to factor    = 9529759
 Itn      Primal Obj        Dual Obj  Prim Inf Upper Inf  Dual Inf Inf Ratio
   0   1.0252179e+04   2.8807117e+00  1.03e+04  0.00e+00  1.26e+03  1.00e+00
   1   1.5518201e+03   2.0877549e+02  1.22e+03  0.00e+00  5.81e+02  2.52e+00
   2   1.1141158e+03   2.7579227e+02  7.67e+02  0.00e+00  3.35e+02  4.17e+00
   3   7.0972247e+02   2.9646807e+02  3.73e+02  0.00e+00  2.02e+02  6.87e+00
   4   4.4519256e+02   3.0639164e+02  1.20e+02  0.00e+00  1.15e+02  1.25e+01
   5   3.8817344e+02   3.1422778e+02  6.53e+01  0.00e+00  4.98e+01  3.56e+01
   6   3.5862993e+02   3.1526938e+02  3.78e+01  0.00e+00  3.57e+01  5.23e+01
   7   3.3251573e+02   3.1591798e+02  1.40e+01  0.00e+00  2.40e+01  8.45e+01
   8   3.2601122e+02   3.1623154e+02  8.28e+00  0.00e+00  1.17e+01  2.25e+02
   9   3.1882403e+02   3.1596688e+02  2.55e+00  0.00e+00  6.59e+00  4.11e+02
  10   3.1624041e+02   3.1562782e+02  5.68e-01  0.00e+00  1.80e+00  1.58e+03
Barrier time = 0.03 sec. (17.12 ticks)

Dual simplex solved model.


Log for 'files/d6cube.mps' Clone_1 (V20.1.0.0) Sat May  3 21:36:01 2025

Tried aggregator 1 time.
LP Presolve eliminated 12 rows and 741 columns.
Aggregator did 1 substitutions.
Reduced LP has 402 rows, 5442 columns, and 34230 nonzeros.
Presolve time = 0.01 sec. (10.92 ticks)
Parallel mode: using up to 14 threads for barrier.
Number of nonzeros in lower triangle of A*A' = 13037
Using Nested Dissection ordering
Total time for automatic ordering = 0.01 sec. (5.03 ticks)
Summary statistics for Cholesky factor:
  Threads                   = 14
  Rows in Factor            = 402
  Integer space required    = 2690
  Total non-zeros in factor = 54221
  Total FP ops to factor    = 9529759
 Itn      Primal Obj        Dual Obj  Prim Inf Upper Inf  Dual Inf Inf Ratio
   0   1.0252179e+04   2.8807117e+00  1.03e+04  0.00e+00  1.26e+03  1.00e+00
   1   1.5518201e+03   2.0877549e+02  1.22e+03  0.00e+00  5.81e+02  2.52e+00
   2   1.1141158e+03   2.7579227e+02  7.67e+02  0.00e+00  3.35e+02  4.17e+00
   3   7.0972247e+02   2.9646807e+02  3.73e+02  0.00e+00  2.02e+02  6.87e+00
   4   4.4519256e+02   3.0639164e+02  1.20e+02  0.00e+00  1.15e+02  1.25e+01
   5   3.8817344e+02   3.1422778e+02  6.53e+01  0.00e+00  4.98e+01  3.56e+01
   6   3.5862993e+02   3.1526938e+02  3.78e+01  0.00e+00  3.57e+01  5.23e+01
   7   3.3251573e+02   3.1591798e+02  1.40e+01  0.00e+00  2.40e+01  8.45e+01
   8   3.2601122e+02   3.1623154e+02  8.28e+00  0.00e+00  1.17e+01  2.25e+02
 Barrier aborted.
Barrier time = 0.04 sec. (15.28 ticks)

Dual simplex solved model.


Log for 'files/d6cube.mps' Clone_1 (V20.1.0.0) Sat May  3 21:48:17 2025

Presolve time = 0.00 sec. (0.89 ticks)

Dual simplex solved model.


Log for 'files/d6cube.mps' Clone_1 (V20.1.0.0) Sat May  3 21:51:33 2025

Presolve time = 0.01 sec. (1.65 ticks)

Dual simplex solved model.

